
Gurobi 13.0.0 (mac64[arm]) logging started Mon Jan 12 22:37:00 2026

Set parameter LogFile to value "/Users/philippstockerl/BachelorThesis/AutonomousVehicleRoutingDSS/Data/StreamlitShowCase/BudgetedUncertainty/gurobi.log"
Set parameter DisplayInterval to value 1
Set parameter TimeLimit to value 60
Set parameter MIPGap to value 0.02
Gurobi Optimizer version 13.0.0 build v13.0.0rc1 (mac64[arm] - Darwin 24.6.0 24G222)

CPU model: Apple M2
Thread count: 8 physical cores, 8 logical processors, using up to 8 threads

Non-default parameters:
TimeLimit  60
MIPGap  0.02
DisplayInterval  1

Optimize a model with 49600 rows, 79201 columns and 198000 nonzeros (Min)
Model fingerprint: 0xf91f0888
Model has 79201 linear objective coefficients
Variable types: 39601 continuous, 39600 integer (39600 binary)
Coefficient statistics:
  Matrix range     [3e-02, 1e+00]
  Objective range  [2e-04, 2e+01]
  Bounds range     [1e+00, 1e+00]
  RHS range        [1e+00, 1e+00]
Presolve removed 6 rows and 10 columns
Presolve time: 0.18s
Presolved: 49594 rows, 79191 columns, 197976 nonzeros
Variable types: 39597 continuous, 39594 integer (39594 binary)
Found heuristic solution: objective 78.1511830
Deterministic concurrent LP optimizer: primal and dual simplex
Showing primal log only...


Root simplex log...

Iteration    Objective       Primal Inf.    Dual Inf.      Time
   72263    1.6090266e+03   0.000000e+00   3.274580e+04      1s
   97284    1.8005589e+02   0.000000e+00   5.951359e+04      2s
Concurrent spin time: 0.52s (can be avoided by choosing Method=3)

Solved with dual simplex

Root simplex log...

Iteration    Objective       Primal Inf.    Dual Inf.      Time
    9645    6.5128885e+01   0.000000e+00   0.000000e+00      2s

Root relaxation: objective 6.512889e+01, 9645 iterations, 1.68 seconds (3.83 work units)

    Nodes    |    Current Node    |     Objective Bounds      |     Work
 Expl Unexpl |  Obj  Depth IntInf | Incumbent    BestBd   Gap | It/Node Time

     0     0   65.12889    0 1033   78.15118   65.12889  16.7%     -    2s
H    0     0                      73.6920544   65.12889  11.6%     -    2s
H    0     0                      73.6869893   65.12889  11.6%     -    2s
H    0     0                      73.6635355   65.12889  11.6%     -    2s
H    0     0                      73.4594549   65.12889  11.3%     -    2s
H    0     0                      73.4404106   65.12889  11.3%     -    2s
H    0     0                      73.4389500   65.12889  11.3%     -    2s
H    0     0                      73.4317876   65.12889  11.3%     -    2s
H    0     0                      73.4231696   65.12889  11.3%     -    2s
H    0     0                      73.3550353   65.12889  11.2%     -    2s
H    0     0                      73.3547163   65.12889  11.2%     -    2s
H    0     0                      73.3522928   65.12889  11.2%     -    2s
H    0     0                      73.3452596   65.12889  11.2%     -    2s
H    0     0                      73.3446065   65.12889  11.2%     -    3s
H    0     0                      73.1796768   65.12889  11.0%     -    3s
H    0     0                      73.1665038   65.12889  11.0%     -    4s
H    0     0                      73.1498102   65.12889  11.0%     -    4s
H    0     0                      73.1439353   65.12889  11.0%     -    5s
H    0     0                      73.0484391   65.12889  10.8%     -    5s
     0     0   66.88277    0 1382   73.04844   66.88277  8.44%     -   18s
H    0     0                      73.0454624   66.88277  8.44%     -   18s
H    0     0                      73.0433653   66.88277  8.43%     -   18s
H    0     0                      73.0392390   66.88277  8.43%     -   18s
H    0     0                      73.0124690   66.88277  8.40%     -   18s
H    0     0                      73.0075855   66.88277  8.39%     -   18s
H    0     0                      73.0031810   66.88277  8.38%     -   18s
     0     0   66.88277    0 1353   73.00318   66.88277  8.38%     -   18s
     0     0   66.88277    0 1360   73.00318   66.88277  8.38%     -   18s
     0     0   66.89550    0 1362   73.00318   66.89550  8.37%     -   19s
     0     0   66.92995    0 1358   73.00318   66.92995  8.32%     -   19s
     0     0   66.94140    0 1360   73.00318   66.94140  8.30%     -   19s
     0     0   66.94140    0 1387   73.00318   66.94140  8.30%     -   19s
     0     0   67.09846    0 1419   73.00318   67.09846  8.09%     -   28s
     0     0   67.11190    0 1415   73.00318   67.11190  8.07%     -   28s
     0     0   67.11205    0 1412   73.00318   67.11205  8.07%     -   28s
     0     0   67.11328    0 1426   73.00318   67.11328  8.07%     -   28s
     0     0   67.19820    0 1267   73.00318   67.19820  7.95%     -   36s
     0     0   67.21042    0 1285   73.00318   67.21042  7.93%     -   36s
     0     0   67.21042    0 1279   73.00318   67.21042  7.93%     -   36s
     0     0   67.21162    0 1283   73.00318   67.21162  7.93%     -   36s
     0     0   67.27028    0 1270   73.00318   67.27028  7.85%     -   40s
     0     0   67.28881    0 1273   73.00318   67.28881  7.83%     -   41s
     0     0   67.29705    0 1263   73.00318   67.29705  7.82%     -   41s
     0     0   67.29705    0 1266   73.00318   67.29705  7.82%     -   41s
     0     0   67.29745    0 1268   73.00318   67.29745  7.82%     -   41s
     0     0   67.29745    0 1269   73.00318   67.29745  7.82%     -   41s
H    0     0                      72.9948513   67.32430  7.77%     -   44s
     0     0   67.33988    0 1356   72.99485   67.33988  7.75%     -   44s
     0     0   67.34106    0 1356   72.99485   67.34106  7.75%     -   45s
     0     2   67.34106    0 1356   72.99485   67.34106  7.75%     -   45s
     1     4   67.34106    1 1354   72.99485   67.34106  7.75%   398   46s
     7    16   67.40590    3 1291   72.99485   67.34106  7.75%   603   47s
    15    24   68.51650    4 1431   72.99485   67.36606  7.71%   766   48s
    23    41   68.52052    5 1424   72.99485   67.36606  7.71%   745   49s
H   40    49                      72.9553965   67.36606  7.66%   562   50s
    48    65   69.01481    9 1387   72.95540   67.36606  7.66%   562   51s
H   49    65                      72.9469180   67.36606  7.65%   551   51s
    72    81   69.91745   12 1079   72.94692   67.36606  7.65%   518   52s
H   75    81                      72.9336975   67.36606  7.63%   513   52s
    80   112   69.33835   13 1155   72.93370   67.36606  7.63%   497   53s
   142   163   70.57106   19 1203   72.93370   67.36606  7.63%   347   54s
   186   209   70.11171   23 1144   72.93370   67.36606  7.63%   304   55s
   262   282   70.42264   28 1232   72.93370   67.36606  7.63%   251   56s
H  286   297                      72.9284639   67.36606  7.63%   241   56s
H  291   297                      72.9243414   67.36606  7.62%   239   56s
   332   380   71.41226   35 1014   72.92434   67.36606  7.62%   225   57s
   431   476   71.35053   40  800   72.92434   67.36606  7.62%   190   58s
   551   569   71.66867   56  868   72.92434   67.38065  7.60%   161   59s
   654   624   72.25740   73  646   72.92434   67.49090  7.45%   147   60s

Cutting planes:
  Gomory: 73
  Lift-and-project: 6
  Implied bound: 4
  MIR: 18
  Flow cover: 188
  RLT: 687

Explored 660 nodes (110063 simplex iterations) in 60.04 seconds (74.49 work units)
Thread count was 8 (of 8 available processors)

Solution count 10: 72.9243 72.9285 72.9337 ... 73.0434

Time limit reached
Best objective 7.292434135612e+01, best bound 6.749089651271e+01, gap 7.4508%
